c Generated barabasi_albert graph
p edge 382 1885
e 1 2
e 1 3
e 1 4
e 1 5
e 1 6
e 1 7
e 1 8
e 1 10
e 1 11
e 1 12
e 1 15
e 1 16
e 1 20
e 1 21
e 1 22
e 1 24
e 1 25
e 1 28
e 1 29
e 1 31
e 1 33
e 1 34
e 1 35
e 1 39
e 1 42
e 1 43
e 1 44
e 1 45
e 1 58
e 1 63
e 1 72
e 1 73
e 1 74
e 1 76
e 1 79
e 1 86
e 1 94
e 1 125
e 1 130
e 1 134
e 1 143
e 1 147
e 1 153
e 1 169
e 1 176
e 1 183
e 1 205
e 1 237
e 1 239
e 1 243
e 1 249
e 1 251
e 1 261
e 1 265
e 1 272
e 1 278
e 1 280
e 1 291
e 1 306
e 1 326
e 1 336
e 1 347
e 1 375
e 2 7
e 2 8
e 2 9
e 2 11
e 2 16
e 2 25
e 2 27
e 2 35
e 2 36
e 2 37
e 2 53
e 2 55
e 2 69
e 2 77
e 2 98
e 2 99
e 2 103
e 2 116
e 2 117
e 2 122
e 2 125
e 2 136
e 2 146
e 2 196
e 2 232
e 2 240
e 2 255
e 2 275
e 2 291
e 3 7
e 3 13
e 3 27
e 3 28
e 3 35
e 3 40
e 3 51
e 3 73
e 3 76
e 3 83
e 3 119
e 3 124
e 3 144
e 3 147
e 3 184
e 3 197
e 3 231
e 3 247
e 3 251
e 3 256
e 3 299
e 3 321
e 3 322
e 3 345
e 3 353
e 3 357
e 4 7
e 4 8
e 4 14
e 4 33
e 4 39
e 4 42
e 4 55
e 4 65
e 4 74
e 4 75
e 4 80
e 4 96
e 4 97
e 4 100
e 4 112
e 4 128
e 4 157
e 4 159
e 4 220
e 4 322
e 4 324
e 4 362
e 5 8
e 5 9
e 5 10
e 5 11
e 5 12
e 5 13
e 5 14
e 5 15
e 5 17
e 5 19
e 5 22
e 5 26
e 5 30
e 5 31
e 5 32
e 5 33
e 5 34
e 5 35
e 5 38
e 5 39
e 5 40
e 5 41
e 5 44
e 5 52
e 5 54
e 5 56
e 5 59
e 5 60
e 5 63
e 5 64
e 5 67
e 5 82
e 5 96
e 5 102
e 5 107
e 5 108
e 5 118
e 5 128
e 5 129
e 5 134
e 5 146
e 5 164
e 5 171
e 5 189
e 5 195
e 5 198
e 5 201
e 5 209
e 5 214
e 5 218
e 5 224
e 5 238
e 5 256
e 5 258
e 5 264
e 5 279
e 5 295
e 5 305
e 5 315
e 5 319
e 5 321
e 5 340
e 5 353
e 5 354
e 5 359
e 5 378
e 6 7
e 6 9
e 6 12
e 6 16
e 6 18
e 6 20
e 6 29
e 6 32
e 6 34
e 6 38
e 6 39
e 6 49
e 6 50
e 6 51
e 6 54
e 6 60
e 6 63
e 6 66
e 6 73
e 6 82
e 6 112
e 6 114
e 6 121
e 6 133
e 6 138
e 6 142
e 6 143
e 6 161
e 6 175
e 6 183
e 6 215
e 6 256
e 6 258
e 6 274
e 6 285
e 6 309
e 6 350
e 6 372
e 7 8
e 7 9
e 7 10
e 7 11
e 7 13
e 7 14
e 7 15
e 7 17
e 7 21
e 7 23
e 7 27
e 7 29
e 7 30
e 7 31
e 7 38
e 7 39
e 7 43
e 7 49
e 7 53
e 7 60
e 7 61
e 7 62
e 7 68
e 7 84
e 7 86
e 7 90
e 7 92
e 7 95
e 7 97
e 7 98
e 7 99
e 7 114
e 7 116
e 7 120
e 7 124
e 7 126
e 7 134
e 7 135
e 7 149
e 7 150
e 7 155
e 7 156
e 7 159
e 7 160
e 7 164
e 7 169
e 7 177
e 7 180
e 7 186
e 7 187
e 7 188
e 7 191
e 7 194
e 7 202
e 7 203
e 7 208
e 7 210
e 7 217
e 7 222
e 7 258
e 7 267
e 7 275
e 7 285
e 7 305
e 7 312
e 7 327
e 7 335
e 7 339
e 7 381
e 8 9
e 8 10
e 8 12
e 8 13
e 8 14
e 8 15
e 8 16
e 8 18
e 8 20
e 8 22
e 8 25
e 8 26
e 8 36
e 8 37
e 8 38
e 8 45
e 8 46
e 8 48
e 8 51
e 8 53
e 8 58
e 8 62
e 8 63
e 8 73
e 8 76
e 8 77
e 8 78
e 8 94
e 8 108
e 8 109
e 8 119
e 8 136
e 8 141
e 8 142
e 8 149
e 8 160
e 8 168
e 8 179
e 8 188
e 8 197
e 8 200
e 8 202
e 8 209
e 8 212
e 8 214
e 8 220
e 8 226
e 8 234
e 8 235
e 8 240
e 8 269
e 8 295
e 8 320
e 8 323
e 8 324
e 8 329
e 8 333
e 8 338
e 8 354
e 8 375
e 9 10
e 9 17
e 9 19
e 9 24
e 9 44
e 9 45
e 9 46
e 9 52
e 9 55
e 9 64
e 9 67
e 9 75
e 9 100
e 9 104
e 9 111
e 9 129
e 9 136
e 9 163
e 9 170
e 9 188
e 9 191
e 9 192
e 9 221
e 9 231
e 9 307
e 9 353
e 10 11
e 10 12
e 10 14
e 10 18
e 10 19
e 10 20
e 10 22
e 10 23
e 10 25
e 10 26
e 10 30
e 10 41
e 10 46
e 10 48
e 10 55
e 10 57
e 10 68
e 10 81
e 10 90
e 10 99
e 10 111
e 10 130
e 10 155
e 10 159
e 10 161
e 10 165
e 10 183
e 10 196
e 10 213
e 10 225
e 10 228
e 10 232
e 10 235
e 10 237
e 10 254
e 10 264
e 10 282
e 10 318
e 10 344
e 10 348
e 10 364
e 10 380
e 11 13
e 11 19
e 11 27
e 11 72
e 11 89
e 11 102
e 11 105
e 11 108
e 11 110
e 11 122
e 11 151
e 11 154
e 11 163
e 11 179
e 11 203
e 11 231
e 11 243
e 11 245
e 11 254
e 11 270
e 11 292
e 11 301
e 11 311
e 11 319
e 11 357
e 11 361
e 11 369
e 11 373
e 12 17
e 12 24
e 12 31
e 12 33
e 12 36
e 12 80
e 12 91
e 12 103
e 12 244
e 12 374
e 13 15
e 13 16
e 13 18
e 13 23
e 13 25
e 13 29
e 13 31
e 13 32
e 13 42
e 13 47
e 13 48
e 13 49
e 13 56
e 13 64
e 13 69
e 13 86
e 13 94
e 13 144
e 13 145
e 13 176
e 13 178
e 13 199
e 13 215
e 13 229
e 13 242
e 13 244
e 13 251
e 13 262
e 13 266
e 13 282
e 13 286
e 13 289
e 13 293
e 13 305
e 13 337
e 13 363
e 14 17
e 14 19
e 14 21
e 14 28
e 14 54
e 14 57
e 14 67
e 14 71
e 14 87
e 14 93
e 14 112
e 14 113
e 14 120
e 14 121
e 14 146
e 14 157
e 14 181
e 14 187
e 14 191
e 14 207
e 14 211
e 14 240
e 14 248
e 14 263
e 14 298
e 14 330
e 14 331
e 14 341
e 15 18
e 15 23
e 15 53
e 15 186
e 15 233
e 15 306
e 15 370
e 16 26
e 16 28
e 16 32
e 16 42
e 16 44
e 16 56
e 16 69
e 16 71
e 16 87
e 16 101
e 16 109
e 16 127
e 16 129
e 16 162
e 16 175
e 16 199
e 16 204
e 16 253
e 16 265
e 16 297
e 16 317
e 16 323
e 16 347
e 16 349
e 16 363
e 17 27
e 17 41
e 17 49
e 17 59
e 17 81
e 17 105
e 17 114
e 17 123
e 17 125
e 17 135
e 17 141
e 17 154
e 17 162
e 17 179
e 17 181
e 17 198
e 17 206
e 17 207
e 17 212
e 17 223
e 17 292
e 17 321
e 17 324
e 18 24
e 18 37
e 18 46
e 18 58
e 18 60
e 18 65
e 18 72
e 18 89
e 18 92
e 18 97
e 18 118
e 18 126
e 18 133
e 18 135
e 18 147
e 18 153
e 18 160
e 18 166
e 18 183
e 18 193
e 18 212
e 18 223
e 18 224
e 18 226
e 18 228
e 18 292
e 18 308
e 18 314
e 18 326
e 18 358
e 18 371
e 18 379
e 19 20
e 19 21
e 19 43
e 19 71
e 19 72
e 19 84
e 19 107
e 19 174
e 19 222
e 19 244
e 19 307
e 19 355
e 20 21
e 20 24
e 20 26
e 20 40
e 20 79
e 20 98
e 20 101
e 20 115
e 20 143
e 20 161
e 20 181
e 20 194
e 20 200
e 20 220
e 20 224
e 20 229
e 20 239
e 20 246
e 20 259
e 20 298
e 20 299
e 20 368
e 20 382
e 21 22
e 21 23
e 21 32
e 21 37
e 21 47
e 21 52
e 21 58
e 21 60
e 21 83
e 21 103
e 21 105
e 21 160
e 21 168
e 21 189
e 21 284
e 21 286
e 21 302
e 21 312
e 22 30
e 22 64
e 22 112
e 22 117
e 22 142
e 22 152
e 22 159
e 22 162
e 22 238
e 22 367
e 23 29
e 23 37
e 23 50
e 23 84
e 23 117
e 23 122
e 23 145
e 23 213
e 23 246
e 23 261
e 23 293
e 23 340
e 23 363
e 23 366
e 24 62
e 24 69
e 24 123
e 24 139
e 24 303
e 25 30
e 25 43
e 25 75
e 25 101
e 25 111
e 25 175
e 25 176
e 25 250
e 25 264
e 25 278
e 25 300
e 25 311
e 25 330
e 25 381
e 26 28
e 26 36
e 26 47
e 26 51
e 26 55
e 26 61
e 26 91
e 26 95
e 26 100
e 26 118
e 26 121
e 26 156
e 26 168
e 26 192
e 26 197
e 26 204
e 26 242
e 26 250
e 26 254
e 26 273
e 26 308
e 26 331
e 27 52
e 27 57
e 27 64
e 27 88
e 27 98
e 27 108
e 27 148
e 27 158
e 27 209
e 27 217
e 27 373
e 28 33
e 28 34
e 28 35
e 28 36
e 28 50
e 28 54
e 28 74
e 28 78
e 28 88
e 28 106
e 28 114
e 28 129
e 28 148
e 28 155
e 28 164
e 28 173
e 28 174
e 28 260
e 28 271
e 28 287
e 28 294
e 28 295
e 28 302
e 28 329
e 28 334
e 28 374
e 28 380
e 29 41
e 29 47
e 29 52
e 29 83
e 29 98
e 29 104
e 29 117
e 29 123
e 29 124
e 29 137
e 29 141
e 29 147
e 29 150
e 29 161
e 29 166
e 29 182
e 29 205
e 29 210
e 29 212
e 29 220
e 29 238
e 29 266
e 29 268
e 29 294
e 29 334
e 29 360
e 30 47
e 30 76
e 30 87
e 30 173
e 30 177
e 30 211
e 30 381
e 31 34
e 31 41
e 31 42
e 31 45
e 31 58
e 31 61
e 31 81
e 31 91
e 31 97
e 31 132
e 31 138
e 31 144
e 31 146
e 31 148
e 31 150
e 31 169
e 31 214
e 31 261
e 31 262
e 31 290
e 31 338
e 31 348
e 31 351
e 31 355
e 31 357
e 31 364
e 32 120
e 32 173
e 32 220
e 32 319
e 32 372
e 33 51
e 33 57
e 33 62
e 33 68
e 33 70
e 33 71
e 33 79
e 33 85
e 33 95
e 33 116
e 33 131
e 33 149
e 33 153
e 33 185
e 33 217
e 33 271
e 33 333
e 33 372
e 34 38
e 34 74
e 34 79
e 34 138
e 34 172
e 34 237
e 34 266
e 34 321
e 34 334
e 34 350
e 34 368
e 34 371
e 34 376
e 35 40
e 35 53
e 35 85
e 35 86
e 35 88
e 35 99
e 35 102
e 35 138
e 35 164
e 35 176
e 35 179
e 35 198
e 35 213
e 35 306
e 35 328
e 35 375
e 36 66
e 36 101
e 36 107
e 36 130
e 36 139
e 36 168
e 36 189
e 36 255
e 36 282
e 36 300
e 37 40
e 37 43
e 37 46
e 37 48
e 37 56
e 37 86
e 37 91
e 37 118
e 37 120
e 37 152
e 37 170
e 37 184
e 37 195
e 37 239
e 37 255
e 37 273
e 37 313
e 37 343
e 37 375
e 37 380
e 38 49
e 38 57
e 38 96
e 38 109
e 38 110
e 38 180
e 38 232
e 38 276
e 38 332
e 39 85
e 39 161
e 39 269
e 39 375
e 40 45
e 40 67
e 40 250
e 40 330
e 41 44
e 41 65
e 41 78
e 41 80
e 41 90
e 41 100
e 41 110
e 41 142
e 41 145
e 41 170
e 41 171
e 41 195
e 41 276
e 41 298
e 41 344
e 41 350
e 42 67
e 42 119
e 42 128
e 42 135
e 42 140
e 42 157
e 42 190
e 42 331
e 42 336
e 42 358
e 42 367
e 43 70
e 43 93
e 43 112
e 43 173
e 43 175
e 43 180
e 43 231
e 43 233
e 43 260
e 43 271
e 43 290
e 43 318
e 43 348
e 44 48
e 44 54
e 44 70
e 44 77
e 44 82
e 44 94
e 44 113
e 44 156
e 44 166
e 44 176
e 44 194
e 44 206
e 44 223
e 44 224
e 44 230
e 44 260
e 44 271
e 44 274
e 44 282
e 44 286
e 44 302
e 44 308
e 44 310
e 44 331
e 44 333
e 44 351
e 44 359
e 44 371
e 45 180
e 45 194
e 46 65
e 47 56
e 47 91
e 47 101
e 47 137
e 47 163
e 47 219
e 47 336
e 47 377
e 48 50
e 48 59
e 48 104
e 48 241
e 48 328
e 49 50
e 49 66
e 49 69
e 49 70
e 49 75
e 49 76
e 49 77
e 49 78
e 49 106
e 49 113
e 49 115
e 49 118
e 49 120
e 49 130
e 49 139
e 49 144
e 49 148
e 49 167
e 49 168
e 49 169
e 49 215
e 49 236
e 49 245
e 49 345
e 49 367
e 50 62
e 50 68
e 50 92
e 50 99
e 50 137
e 50 139
e 50 150
e 50 234
e 50 377
e 51 59
e 51 66
e 51 89
e 51 178
e 51 207
e 51 244
e 51 315
e 51 317
e 51 318
e 51 343
e 52 61
e 52 80
e 52 82
e 52 108
e 52 113
e 52 153
e 52 184
e 52 196
e 52 206
e 52 290
e 52 297
e 52 309
e 52 323
e 52 327
e 52 337
e 52 343
e 52 359
e 52 364
e 52 365
e 52 366
e 52 380
e 53 283
e 54 61
e 54 72
e 54 80
e 54 82
e 54 89
e 54 92
e 54 93
e 54 104
e 54 115
e 54 133
e 54 134
e 54 140
e 54 219
e 54 247
e 54 270
e 54 283
e 54 286
e 54 354
e 54 356
e 55 59
e 55 70
e 55 79
e 55 162
e 55 192
e 55 228
e 55 238
e 55 341
e 56 94
e 56 96
e 56 197
e 56 241
e 56 284
e 56 295
e 57 78
e 57 83
e 57 97
e 57 122
e 57 133
e 57 210
e 57 221
e 57 252
e 57 268
e 57 302
e 57 363
e 57 372
e 58 284
e 58 298
e 58 332
e 58 378
e 59 63
e 59 71
e 59 123
e 59 158
e 59 170
e 59 207
e 59 222
e 59 263
e 59 352
e 60 65
e 60 83
e 60 104
e 60 109
e 60 124
e 60 162
e 60 236
e 60 246
e 60 343
e 60 350
e 61 93
e 61 102
e 61 127
e 61 141
e 61 247
e 61 288
e 62 66
e 62 75
e 62 77
e 62 88
e 62 105
e 62 167
e 62 177
e 62 178
e 62 181
e 62 229
e 62 253
e 62 272
e 62 292
e 62 311
e 62 319
e 62 344
e 62 351
e 62 358
e 63 73
e 63 85
e 63 87
e 63 92
e 63 103
e 63 111
e 63 135
e 63 172
e 63 221
e 63 230
e 63 353
e 63 370
e 64 81
e 64 216
e 64 248
e 64 347
e 65 90
e 65 102
e 65 177
e 65 186
e 65 195
e 65 198
e 65 282
e 65 287
e 65 298
e 66 132
e 66 146
e 66 313
e 66 362
e 67 68
e 67 87
e 67 113
e 67 127
e 67 156
e 67 187
e 67 200
e 67 201
e 67 269
e 67 280
e 68 95
e 68 103
e 68 145
e 68 163
e 68 219
e 69 126
e 69 149
e 69 151
e 69 251
e 69 262
e 69 379
e 70 74
e 70 224
e 70 226
e 71 172
e 71 201
e 71 206
e 71 235
e 71 240
e 71 248
e 71 250
e 71 289
e 71 345
e 71 366
e 72 121
e 72 238
e 72 277
e 73 84
e 73 128
e 73 144
e 73 261
e 73 275
e 73 285
e 74 131
e 74 202
e 74 227
e 74 273
e 74 289
e 74 299
e 75 106
e 75 109
e 75 114
e 75 116
e 75 119
e 75 126
e 75 171
e 75 301
e 75 356
e 76 84
e 76 85
e 76 88
e 76 100
e 76 106
e 76 123
e 76 125
e 76 158
e 76 181
e 76 233
e 76 258
e 76 262
e 76 290
e 76 304
e 77 110
e 77 111
e 77 175
e 77 182
e 77 192
e 77 196
e 77 204
e 77 346
e 78 227
e 79 96
e 79 151
e 79 190
e 80 81
e 80 183
e 80 227
e 80 277
e 81 107
e 81 179
e 81 203
e 81 254
e 81 325
e 81 348
e 81 377
e 82 131
e 82 143
e 82 316
e 82 346
e 83 89
e 83 110
e 83 125
e 83 151
e 83 270
e 84 90
e 84 185
e 84 327
e 84 341
e 84 367
e 85 131
e 85 167
e 85 185
e 85 314
e 85 320
e 85 351
e 86 93
e 86 187
e 86 293
e 86 307
e 86 317
e 87 116
e 87 122
e 87 140
e 87 155
e 87 190
e 87 225
e 87 285
e 87 338
e 88 95
e 88 115
e 88 147
e 88 241
e 88 253
e 88 287
e 88 318
e 90 182
e 90 188
e 90 210
e 90 229
e 90 236
e 90 252
e 90 253
e 90 275
e 90 283
e 90 301
e 90 327
e 91 136
e 91 145
e 91 219
e 92 157
e 92 276
e 93 128
e 93 154
e 93 155
e 93 174
e 93 316
e 94 299
e 94 347
e 95 115
e 95 132
e 95 201
e 95 239
e 96 192
e 96 208
e 96 234
e 96 291
e 97 105
e 97 154
e 98 124
e 98 229
e 98 264
e 98 324
e 99 117
e 99 130
e 99 131
e 99 134
e 99 191
e 99 218
e 99 226
e 99 248
e 99 278
e 100 107
e 100 199
e 100 243
e 100 260
e 101 194
e 101 202
e 101 225
e 101 280
e 101 295
e 102 193
e 102 208
e 102 211
e 102 241
e 102 274
e 103 106
e 103 138
e 103 166
e 103 187
e 103 198
e 103 336
e 103 342
e 104 132
e 104 180
e 104 275
e 105 141
e 105 156
e 105 356
e 106 149
e 106 265
e 107 163
e 107 241
e 107 249
e 107 254
e 107 286
e 107 364
e 108 165
e 108 250
e 108 252
e 108 373
e 109 121
e 109 184
e 109 193
e 109 203
e 109 221
e 109 252
e 109 264
e 109 281
e 109 303
e 110 136
e 110 193
e 110 204
e 110 213
e 110 217
e 110 248
e 110 310
e 111 218
e 111 245
e 112 119
e 112 152
e 112 165
e 112 167
e 112 279
e 112 369
e 113 140
e 113 165
e 114 137
e 114 158
e 114 173
e 114 279
e 115 190
e 115 271
e 115 338
e 115 342
e 116 178
e 116 259
e 116 272
e 116 304
e 116 368
e 117 127
e 117 140
e 117 157
e 117 167
e 117 196
e 117 208
e 117 262
e 117 289
e 117 308
e 117 342
e 118 139
e 118 288
e 119 126
e 119 127
e 119 143
e 119 152
e 119 164
e 119 201
e 119 255
e 119 296
e 120 142
e 120 150
e 120 325
e 122 132
e 122 148
e 122 152
e 122 153
e 122 256
e 123 252
e 124 133
e 124 291
e 125 326
e 125 337
e 126 137
e 126 151
e 126 227
e 126 348
e 126 360
e 126 365
e 128 129
e 128 215
e 128 217
e 128 284
e 128 344
e 129 239
e 129 279
e 129 332
e 130 223
e 130 349
e 131 169
e 131 370
e 132 206
e 132 308
e 133 178
e 133 267
e 133 306
e 134 243
e 135 154
e 135 159
e 135 160
e 135 172
e 135 186
e 135 247
e 135 322
e 136 257
e 137 165
e 137 172
e 137 324
e 137 327
e 137 345
e 138 294
e 138 296
e 138 334
e 139 216
e 139 257
e 139 263
e 139 267
e 140 188
e 140 221
e 140 288
e 140 326
e 140 373
e 141 171
e 141 184
e 141 185
e 141 203
e 141 211
e 141 257
e 141 300
e 141 305
e 141 312
e 141 315
e 141 331
e 141 341
e 141 362
e 142 185
e 142 216
e 142 242
e 142 246
e 142 274
e 142 281
e 142 300
e 142 373
e 143 189
e 143 199
e 143 209
e 143 255
e 143 276
e 143 332
e 143 361
e 143 376
e 144 171
e 144 177
e 144 257
e 144 292
e 144 296
e 144 381
e 145 265
e 145 297
e 146 216
e 146 322
e 147 208
e 147 263
e 147 304
e 148 272
e 149 202
e 149 309
e 150 166
e 150 200
e 150 281
e 151 214
e 152 189
e 152 279
e 152 377
e 152 382
e 153 174
e 153 287
e 153 313
e 153 323
e 154 158
e 154 197
e 154 218
e 154 232
e 154 237
e 154 296
e 154 301
e 154 320
e 154 342
e 155 186
e 156 190
e 156 209
e 156 244
e 156 249
e 156 270
e 157 195
e 157 281
e 158 219
e 158 236
e 160 191
e 161 374
e 162 170
e 162 234
e 162 293
e 162 357
e 162 358
e 162 382
e 163 200
e 163 313
e 163 343
e 163 363
e 164 205
e 164 346
e 165 216
e 165 333
e 166 193
e 166 304
e 166 329
e 167 199
e 167 226
e 167 320
e 168 182
e 169 277
e 169 296
e 169 368
e 170 235
e 170 368
e 171 174
e 171 223
e 171 273
e 172 182
e 172 228
e 173 212
e 174 243
e 174 313
e 174 344
e 174 369
e 176 222
e 176 233
e 176 259
e 176 261
e 177 225
e 178 205
e 180 276
e 180 337
e 181 207
e 182 253
e 182 309
e 182 329
e 183 268
e 183 316
e 184 230
e 185 245
e 185 322
e 185 356
e 186 204
e 186 232
e 186 325
e 187 234
e 187 246
e 187 278
e 188 285
e 189 321
e 189 365
e 190 215
e 190 218
e 190 339
e 194 288
e 195 225
e 195 315
e 196 240
e 196 352
e 197 210
e 197 263
e 197 367
e 198 233
e 198 249
e 198 372
e 200 230
e 200 297
e 200 317
e 200 325
e 200 352
e 201 213
e 202 306
e 202 318
e 203 280
e 204 205
e 204 214
e 204 270
e 204 334
e 204 351
e 205 230
e 205 245
e 205 257
e 205 267
e 205 332
e 205 374
e 206 303
e 206 314
e 206 337
e 206 379
e 208 222
e 208 256
e 208 265
e 208 266
e 208 329
e 208 347
e 208 361
e 208 376
e 208 378
e 210 211
e 210 269
e 210 379
e 211 280
e 212 328
e 214 247
e 214 272
e 214 283
e 216 231
e 216 269
e 216 311
e 217 236
e 217 310
e 219 341
e 221 297
e 221 352
e 222 228
e 222 237
e 223 288
e 223 330
e 223 352
e 224 235
e 224 326
e 224 346
e 225 278
e 226 227
e 226 304
e 227 370
e 228 259
e 228 293
e 228 319
e 229 260
e 230 242
e 230 340
e 231 284
e 231 371
e 232 314
e 232 365
e 233 380
e 234 376
e 235 242
e 235 355
e 237 283
e 238 251
e 238 287
e 239 294
e 241 294
e 241 328
e 242 249
e 242 268
e 242 289
e 242 317
e 242 360
e 243 303
e 243 349
e 244 267
e 244 369
e 244 378
e 245 339
e 246 258
e 246 259
e 247 309
e 247 316
e 248 266
e 248 301
e 249 353
e 250 281
e 250 354
e 251 302
e 251 340
e 251 346
e 254 277
e 254 290
e 254 312
e 256 291
e 256 311
e 257 376
e 258 345
e 259 307
e 260 323
e 262 335
e 263 268
e 264 307
e 264 314
e 265 335
e 265 360
e 269 277
e 269 350
e 270 274
e 270 339
e 272 273
e 274 316
e 278 340
e 279 333
e 279 342
e 280 362
e 280 364
e 281 361
e 283 366
e 284 325
e 287 299
e 288 305
e 288 357
e 288 369
e 289 310
e 293 349
e 295 362
e 297 300
e 297 315
e 302 303
e 302 382
e 303 366
e 304 335
e 305 328
e 308 310
e 308 320
e 308 354
e 309 338
e 310 312
e 311 370
e 313 336
e 314 355
e 314 382
e 319 358
e 320 371
e 323 379
e 329 330
e 331 335
e 331 339
e 334 349
e 334 356
e 338 355
e 342 359
e 344 360
e 352 377
e 353 374
e 357 359
e 357 361
e 358 381
e 360 365
e 369 378
